(declare-const |u'0| Int)
(declare-const uninterp1 Int)
(declare-const uninterp0 Int)
(declare-const |r'1| Int)
(declare-const r Int)
(declare-const u Int)
(declare-const |r'| Int)
(declare-const |r'0| Int)
(declare-const K Int)
(declare-const uninterp Int)
(declare-const |v'| Int)
(declare-const |u'| Int)
(declare-const term_to_project_onto Real)
(declare-const term_to_project_onto1 Real)
(declare-const term_to_project_onto0 Real)
(declare-const K0 Int)
(declare-const uninterp2 Int)
(declare-const v Int)
(declare-const A Int)
(declare-const |v'0| Int)
(assert (and (<= (+ (- v) 1) 0) (<= (+ (- A) 1) 0)
               (= (+ (- uninterp) (* 2 u) (* 4 r) (* 4 A) uninterp0 (* -2 v)) 0)
               (or (<= (+ r 1) 0) (<= (+ (- r) 1) 0))
               (= (+ (- |v'0|) (* 2 K) v) 0) (<= (+ |r'0| K (- r)) 0)
               (or (and (= K 0) (= (+ (- |r'0|) r) 0) (= (+ (- |v'0|) v) 0))
                     (and (<= (+ (- K) 1) 0) (<= (+ (- v) 1) 0)
                            (<= (+ (- r) 1) 0) (<= (+ (- A) 1) 0)
                            (<= (+ (- |v'0|) 3) 0)
                            (<= (+ (- |r'0|) (- |v'0|) 3) 0)
                            (<= (+ (- A) 1) 0))) (<= (- K) 0)
               (<= (+ (- |v'0|) 1) 0) (<= (+ (- A) 1) 0)
               (= (+ (* 4 |r'0|) uninterp1 (* -2 |v'0|) (- uninterp) (* 
                       2 u) (* 4 A)) 0) (<= |r'0| 0)
               (= (+ (- |u'0|) (* 2 K0) u) 0)
               (or (and (= K0 0) (= (+ (- |r'1|) |r'0|) 0)
                          (= (+ (- |u'0|) u) 0))
                     (and (<= (+ (- K0) 1) 0) (<= (+ |r'0| 1) 0)
                            (<= (+ (- |v'0|) 1) 0) (<= (+ (- A) 1) 0)
                            (<= (+ |r'1| (- |u'0|) 3) 0)
                            (<= (+ (- |v'0|) 1) 0) (<= (+ (- A) 1) 0)))
               (<= (- K0) 0) (<= (+ (- |v'0|) 1) 0) (<= (+ (- A) 1) 0)
               (= (+ (* 4 |r'1|) (- uninterp2) (* 2 |u'0|) uninterp1
                       (* -2 |v'0|) (* 4 A)) 0) (<= (- |r'1|) 0)
               (= (+ |r'| (- |r'1|)) 0) (= (+ |v'| (- |v'0|)) 0)
               (= (+ |u'| (- |u'0|)) 0) (<= 1 uninterp1) (<= |v'0| uninterp1)
               (<= |v'0| uninterp1) (<= 1 uninterp0) (<= v uninterp0)
               (<= v uninterp0) (= term_to_project_onto1 (+ |u'| (- u)))
               (= term_to_project_onto0 (+ |v'| (- v)))
               (= term_to_project_onto (+ |r'| (- r)))))
(check-sat)
